Features/ForMiniZinc/benchmark_puzzles/benchmarks6x6/80/puzzle6.dzn
S = 6;
start = [|0,24,19,0,0,0,0,0,0,0,18,21,0,0,0,0,0,8,0,0,0,10,0,0,0,28,0,36,34,0,35,0,0,27,0,0|
2,0,0,0,0,0,0,12,0,0,0,0,0,0,0,29,0,0,0,0,0,36,35,0,0,0,0,0,0,22,0,0,0,0,0,16|
0,0,0,0,0,32,25,34,0,0,30,0,0,0,0,19,0,0,0,0,0,0,0,0,0,0,0,0,0,0,10,0,0,0,0,0|
0,0,0,0,0,0,0,0,0,5,0,9,0,27,0,0,0,0,26,0,0,0,0,0,0,0,0,15,16,0,0,0,18,0,0,0|
26,0,29,0,0,0,0,0,0,0,0,0,14,0,0,0,0,0,0,0,19,24,0,20,0,0,0,0,0,0,0,0,0,0,0,0|
0,0,0,0,0,0,0,0,0,0,0,23,2,0,0,5,10,0,0,0,0,0,0,0,0,0,35,0,0,0,0,0,36,0,0,0|
0,0,0,0,0,7,0,0,1,0,0,10,0,28,0,32,0,0,0,0,0,0,0,0,0,0,0,0,15,0,0,0,0,0,0,0|
0,0,30,34,0,0,28,0,27,0,0,36,0,0,0,0,21,0,0,0,20,0,24,0,0,0,0,0,0,0,0,0,0,0,0,3|
0,0,0,0,0,31,0,33,0,0,0,0,0,0,24,20,0,19,0,14,0,0,0,17,0,0,0,4,0,11,0,6,0,0,0,0|
15,0,0,0,0,0,0,0,0,0,0,0,3,0,0,0,0,0,1,0,0,0,0,5,0,0,0,0,0,30,0,0,0,0,0,0|
0,0,0,0,0,0,0,0,0,0,0,0,0,0,10,0,0,0,0,4,0,0,0,0,28,0,0,0,0,0,0,25,0,0,29,0|
0,0,0,0,2,5,0,0,0,8,0,12,0,0,34,0,0,0,0,0,0,0,0,31,0,18,22,0,0,0,0,0,19,0,0,15|
0,0,0,29,0,0,31,0,32,25,0,0,0,0,0,0,18,0,0,0,0,0,15,14,0,0,0,0,10,0,4,0,0,3,0,0|
0,0,0,0,0,0,0,0,0,0,0,0,0,19,0,0,0,0,0,0,0,0,0,0,0,0,3,0,0,0,0,0,0,5,0,0|
0,0,0,0,0,0,0,0,0,0,0,0,0,0,0,0,28,0,0,0,0,0,0,0,0,0,0,0,20,0,0,0,0,0,0,0|
22,0,0,0,0,0,19,16,0,13,0,0,0,0,0,0,6,0,8,7,0,0,0,0,0,0,0,0,0,28,0,0,30,0,0,0|
0,0,0,0,0,0,0,18,0,0,0,0,0,0,0,1,4,0,0,0,0,0,0,0,0,0,0,0,0,0,0,0,0,29,0,0|
0,0,0,0,0,0,7,0,0,0,0,0,34,0,29,35,0,0,0,31,0,28,0,0,24,0,0,0,0,0,0,13,0,0,0,0|
0,3,2,0,0,0,0,0,0,0,0,0,0,0,28,0,0,25,0,0,0,0,0,35,0,0,16,0,0,15,0,0,23,0,0,0|
0,0,0,30,0,0,32,0,31,0,25,0,0,0,0,0,0,0,0,0,14,15,0,0,11,12,0,0,0,0,3,0,1,0,0,0|
0,0,26,0,0,0,34,0,0,0,35,30,0,20,16,0,0,0,0,0,0,0,0,0,0,0,4,0,0,0,0,0,11,6,0,9|
0,0,0,0,10,0,0,0,0,0,0,0,33,0,0,0,0,0,0,0,0,0,28,25,23,0,18,0,21,0,0,0,0,0,0,19|
0,17,0,0,0,0,0,0,0,0,0,16,0,10,0,0,0,0,0,0,0,0,0,0,0,0,0,0,0,35,0,0,0,0,0,0|
0,0,0,0,20,13,0,0,0,24,0,0,0,0,0,0,0,1,9,10,0,0,0,0,0,0,0,0,0,0,0,0,0,0,0,0|
0,13,0,0,18,15,0,0,0,0,0,20,0,0,0,0,0,3,0,0,0,0,8,0,29,0,26,0,0,0,0,0,0,0,0,32|
0,0,0,26,30,27,0,0,0,0,33,0,0,0,0,0,0,0,0,0,0,0,0,21,0,0,0,6,0,0,0,10,0,0,0,0|
0,0,0,0,0,0,0,13,0,0,0,0,0,12,8,0,0,9,0,0,0,1,2,0,0,0,0,0,0,0,0,0,0,25,0,0|
0,1,0,0,0,3,12,0,11,10,0,0,0,0,0,0,0,0,35,0,0,0,32,0,15,0,0,0,0,13,0,0,0,0,0,0|
0,0,0,0,0,9,6,1,0,0,0,0,35,36,0,0,0,0,29,0,0,0,26,27,0,22,0,0,0,0,0,0,0,0,0,0|
0,0,0,32,36,0,0,0,0,0,27,26,0,24,0,0,0,21,17,0,16,0,0,0,0,0,8,12,0,0,0,0,0,2,0,5|
0,0,0,31,35,0,29,0,0,27,0,0,24,0,0,21,20,22,0,0,0,0,0,0,10,0,0,11,0,0,0,0,0,0,0,0|
18,0,0,0,0,0,0,0,0,21,0,0,0,0,0,0,0,0,0,11,0,0,7,0,0,0,0,0,36,0,0,30,27,0,0,0|
6,2,0,1,0,0,0,0,0,0,0,0,0,0,0,0,26,0,0,0,33,0,31,0,0,0,0,0,0,14,20,0,22,0,0,0|
0,0,0,0,0,0,0,0,36,33,0,31,0,0,0,0,0,0,24,0,21,0,0,0,0,0,1,0,0,0,0,0,10,0,0,0|
0,0,0,0,0,0,0,0,18,0,16,0,0,0,0,0,0,10,6,0,0,2,0,0,0,0,0,0,32,0,0,0,0,0,0,0|
0,0,0,7,0,0,0,0,6,0,4,1,0,35,0,0,0,34,0,29,0,0,0,0,0,21,0,0,0,0,0,0,16,0,0,18|];